c cnf generated file for haplotype inference
c author: Fernando Augusto Fernandes Braz
c contact: fernando.afb@gmail.com
p cnf 82 336
-1 0
-31 -51 0
-31 -55 0
-36 -52 0
-36 -56 0
-41 -53 0
-41 -57 0
-46 -54 0
-46 -58 0
 5  6 0
-5 -6 0
 32 -5 -51 0
-32  5 -51 0
 32 -6 -55 0
-32  6 -55 0
 37 -5 -52 0
-37  5 -52 0
 37 -6 -56 0
-37  6 -56 0
 42 -5 -53 0
-42  5 -53 0
 42 -6 -57 0
-42  6 -57 0
 47 -5 -54 0
-47  5 -54 0
 47 -6 -58 0
-47  6 -58 0
 51 -67 0
-51  67  55 -71 0
-51  67  55 -71 0
-55  71 0
-67 -51 0
-71 -55 0
-68 -52 0
-72 -56 0
-69 -53 0
-73 -57 0
-70 -54 0
-74 -58 0
 51  67 -68 0
-51  68 0
-67  68 0
 55  71 -72 0
-55  72 0
-71  72 0
 52  68 -69 0
-52  69 0
-68  69 0
 56  72 -73 0
-56  73 0
-72  73 0
 53  69 -70 0
-53  70 0
-69  70 0
 57  73 -74 0
-57  74 0
-73  74 0
 70 0
 74 0
 7 0
 33 -51 0
 33 -55 0
 38 -52 0
 38 -56 0
 43 -53 0
 43 -57 0
 48 -54 0
 48 -58 0
 11  12 0
-11 -12 0
 34 -11 -51 0
-34  11 -51 0
 34 -12 -55 0
-34  12 -55 0
 39 -11 -52 0
-39  11 -52 0
 39 -12 -56 0
-39  12 -56 0
 44 -11 -53 0
-44  11 -53 0
 44 -12 -57 0
-44  12 -57 0
 49 -11 -54 0
-49  11 -54 0
 49 -12 -58 0
-49  12 -58 0
 51 -67 0
-51  67  55 -71 0
-51  67  55 -71 0
-55  71 0
-67 -51 0
-71 -55 0
-68 -52 0
-72 -56 0
-69 -53 0
-73 -57 0
-70 -54 0
-74 -58 0
 51  67 -68 0
-51  68 0
-67  68 0
 55  71 -72 0
-55  72 0
-71  72 0
 52  68 -69 0
-52  69 0
-68  69 0
 56  72 -73 0
-56  73 0
-72  73 0
 53  69 -70 0
-53  70 0
-69  70 0
 57  73 -74 0
-57  74 0
-73  74 0
 70 0
 74 0
 14  15 0
-14 -15 0
 35 -14 -51 0
-35  14 -51 0
 35 -15 -55 0
-35  15 -55 0
 40 -14 -52 0
-40  14 -52 0
 40 -15 -56 0
-40  15 -56 0
 45 -14 -53 0
-45  14 -53 0
 45 -15 -57 0
-45  15 -57 0
 50 -14 -54 0
-50  14 -54 0
 50 -15 -58 0
-50  15 -58 0
 51 -67 0
-51  67  55 -71 0
-51  67  55 -71 0
-55  71 0
-67 -51 0
-71 -55 0
-68 -52 0
-72 -56 0
-69 -53 0
-73 -57 0
-70 -54 0
-74 -58 0
 51  67 -68 0
-51  68 0
-67  68 0
 55  71 -72 0
-55  72 0
-71  72 0
 52  68 -69 0
-52  69 0
-68  69 0
 56  72 -73 0
-56  73 0
-72  73 0
 53  69 -70 0
-53  70 0
-69  70 0
 57  73 -74 0
-57  74 0
-73  74 0
 70 0
 74 0
-16 0
-31 -59 0
-31 -63 0
-36 -60 0
-36 -64 0
-41 -61 0
-41 -65 0
-46 -62 0
-46 -66 0
 20  21 0
-20 -21 0
 32 -20 -59 0
-32  20 -59 0
 32 -21 -63 0
-32  21 -63 0
 37 -20 -60 0
-37  20 -60 0
 37 -21 -64 0
-37  21 -64 0
 42 -20 -61 0
-42  20 -61 0
 42 -21 -65 0
-42  21 -65 0
 47 -20 -62 0
-47  20 -62 0
 47 -21 -66 0
-47  21 -66 0
 59 -75 0
-59  75  63 -79 0
-59  75  63 -79 0
-63  79 0
-75 -59 0
-79 -63 0
-76 -60 0
-80 -64 0
-77 -61 0
-81 -65 0
-78 -62 0
-82 -66 0
 59  75 -76 0
-59  76 0
-75  76 0
 63  79 -80 0
-63  80 0
-79  80 0
 60  76 -77 0
-60  77 0
-76  77 0
 64  80 -81 0
-64  81 0
-80  81 0
 61  77 -78 0
-61  78 0
-77  78 0
 65  81 -82 0
-65  82 0
-81  82 0
 78 0
 82 0
 22 0
 33 -59 0
 33 -63 0
 38 -60 0
 38 -64 0
 43 -61 0
 43 -65 0
 48 -62 0
 48 -66 0
 26  27 0
-26 -27 0
 34 -26 -59 0
-34  26 -59 0
 34 -27 -63 0
-34  27 -63 0
 39 -26 -60 0
-39  26 -60 0
 39 -27 -64 0
-39  27 -64 0
 44 -26 -61 0
-44  26 -61 0
 44 -27 -65 0
-44  27 -65 0
 49 -26 -62 0
-49  26 -62 0
 49 -27 -66 0
-49  27 -66 0
 59 -75 0
-59  75  63 -79 0
-59  75  63 -79 0
-63  79 0
-75 -59 0
-79 -63 0
-76 -60 0
-80 -64 0
-77 -61 0
-81 -65 0
-78 -62 0
-82 -66 0
 59  75 -76 0
-59  76 0
-75  76 0
 63  79 -80 0
-63  80 0
-79  80 0
 60  76 -77 0
-60  77 0
-76  77 0
 64  80 -81 0
-64  81 0
-80  81 0
 61  77 -78 0
-61  78 0
-77  78 0
 65  81 -82 0
-65  82 0
-81  82 0
 78 0
 82 0
 29  30 0
-29 -30 0
 35 -29 -59 0
-35  29 -59 0
 35 -30 -63 0
-35  30 -63 0
 40 -29 -60 0
-40  29 -60 0
 40 -30 -64 0
-40  30 -64 0
 45 -29 -61 0
-45  29 -61 0
 45 -30 -65 0
-45  30 -65 0
 50 -29 -62 0
-50  29 -62 0
 50 -30 -66 0
-50  30 -66 0
 59 -75 0
-59  75  63 -79 0
-59  75  63 -79 0
-63  79 0
-75 -59 0
-79 -63 0
-76 -60 0
-80 -64 0
-77 -61 0
-81 -65 0
-78 -62 0
-82 -66 0
 59  75 -76 0
-59  76 0
-75  76 0
 63  79 -80 0
-63  80 0
-79  80 0
 60  76 -77 0
-60  77 0
-76  77 0
 64  80 -81 0
-64  81 0
-80  81 0
 61  77 -78 0
-61  78 0
-77  78 0
 65  81 -82 0
-65  82 0
-81  82 0
 78 0
 82 0
